1 3 100 135991.39
1 3 200 135840.77
1 3 300 135717.24
2 3 100 137170.29
2 3 200 136737.67
2 3 300 137603.04
3 3 100 132171.23
3 3 200 132232.46
3 3 300 132750.00
4 3 100 126635.67
4 3 200 127198.29
4 3 300 128356.83
5 3 100 121115.94
5 3 200 121340.36
5 3 300 122187.95
